10
20
1020002
0
0
98 88 53 7 16 21 96 24 30 24 13 88 33 25 96 7 9 56 33 52 
1
0
80 74 54 52 26 36 36 76 93 88 65 1 46 17 91 96 39 11 8 1 
2
0
94 32 36 58 6 40 83 99 9 26 20 63 60 7 18 67 23 29 10 81 
3
0
6 62 9 89 46 53 24 62 78 21 61 2 95 50 89 74 75 84 75 35 
4
0
65 97 92 99 25 99 92 40 81 4 68 53 87 77 17 31 74 97 28 91 
5
0
80 26 41 57 74 68 21 67 54 88 5 9 41 62 84 80 77 54 78 80 
6
0
60 71 37 60 67 70 93 44 48 21 45 20 12 85 45 65 22 2 57 70 
7
0
37 17 65 21 5 21 73 76 69 53 89 97 50 95 78 12 73 82 14 74 
8
0
69 73 18 12 71 9 43 7 4 16 90 60 19 53 44 95 41 80 61 80 
9
0
62 22 81 18 51 73 21 18 44 34 72 7 96 86 81 7 12 34 75 98 
